\* Problem: MasterCutStock *\

Minimize
 obj: + x_1 + x_2 + x_3 + x_4 + x_5 + x_6 + x_7

Subject To
 Width1: + 2 x_7 + 3 x_2 >= 45
 Width2: + x_7 + 5 x_4 + 6 x_3 >= 23
 Width3: + 2 x_7 + 6 x_6 + 8 x_5 + 2 x_4 >= 16
 Width4: + x_1 >= 5

Generals
 x_1
 x_2
 x_3
 x_4
 x_5
 x_6
 x_7

End
